120
150
59
46
51
45
52
48
51
59
51
49
57
55
41
52
47
51
60
46
49
56
45
42
47
44
53
50
47
47
56
60
46
53
57
57
47
44
51
58
52
56
46
51
57
51
58
40
51
53
41
46
56
47
47
57
42
51
43
60
51
56
47
54
53
42
47
60
57
53
46
43
51
53
46
45
59
59
50
47
46
43
57
57
46
57
47
49
47
56
57
47
47
44
46
50
44
42
56
50
51
55
49
50
47
58
41
53
49
48
56
58
43
41
50
47
53
46
40
45
45
49
